37

O     -1.632929   -2.204322   -3.163959
C     -1.214221   -1.654959   -2.111964
O     -0.396694   -0.530840   -2.086834
C     -0.100766   -0.158005   -0.730477
C     -0.844696   -1.201973    0.072637
C     -0.925417   -1.348138    1.460223
C     -1.687370   -2.409517    1.978882
C     -2.351704   -3.301507    1.111518
C     -2.259098   -3.138855   -0.280922
C     -1.496702   -2.077767   -0.764594
C     -0.667101    1.222897   -0.442463
C     -2.000622    1.522056   -0.770211
C     -2.553532    2.767797   -0.461263
I     -4.575577    3.103810   -0.999512
C     -1.770899    3.738834    0.192168
O     -2.288576    4.992925    0.520512
C     -0.439638    3.446452    0.523990
I      0.751353    4.901687    1.505062
C      0.112165    2.197163    0.205960
O      1.444329    1.936218    0.530343
C      2.097550    0.756081    0.170217
C      1.394350   -0.274694   -0.480238
C      2.080741   -1.444401   -0.845995
C      3.441493   -1.587497   -0.571265
I      4.415155   -3.375609   -1.143695
C      4.142674   -0.564823    0.080680
O      5.502001   -0.744746    0.343026
C      3.465736    0.614254    0.454896
I      4.464666    2.209931    1.443420
H     -0.413101   -0.659987    2.120026
H     -1.764432   -2.542636    3.050065
H     -2.935898   -4.115544    1.520414
H     -2.764702   -3.817326   -0.955618
H     -2.618292    0.779163   -1.258631
H     -3.237984    5.270400    0.310597
H      1.555037   -2.253738   -1.336375
H      6.072701   -0.052782    0.809380
