### conj_poly_N ###
1
 16.98970652973633 0.0 0.0
 0.0 17.118164624718048 0.0
 0.0 0.0 16.87070043888235
C  H  O  S  
 25 14 2 1 
Cartesian
 9.474627 10.157423  7.223359
 9.168051  9.381273  3.503178
 9.977897 10.001738  1.322638
 9.686263 10.291868  5.846973
 9.039322  9.421455  4.977069
 8.186222  8.446709  5.476913
 7.954718  8.293853  6.832201
 8.610088  9.153019  7.749123
 7.241742  7.949954 11.130817
 7.395465  8.137616  9.753219
 8.419574  8.982985  9.229314
 8.406748  8.369075  2.919483
 9.278558  9.639873 10.149810
 9.109822  9.431831 11.510241
 8.117095  8.605191 11.982153
 7.749917  8.007331 15.694486
 7.430432  7.872210 14.338762
 8.204219  8.570924 13.416015
 9.256120  9.380234 13.802271
 9.586019  9.526466 15.143815
 9.961209 10.212760  2.707014
 9.208123  8.970397  0.755000
 8.823872  8.829193 16.090393
 9.928540 10.010802 12.623786
 8.410256  8.144639  1.553220
 7.818253  7.347725  1.121894
10.001298 10.855355  7.851230
10.354645 11.057747  5.477295
 7.296468  7.495513  7.128843
 6.465142  7.302518 11.516915
 6.698263  7.611942  9.123527
10.088821 10.282882  9.851589
 9.850680 11.118165 12.653872
10.989707  9.691719 12.549765
 7.169782  7.473994 16.436668
 6.611202  7.239805 14.022908
10.412375 10.157325 15.445495
10.592240 10.631705  0.692144
10.561587 11.001061  3.140092
 7.900780  6.000000  4.235742
 6.000000  7.597403  4.023429
 7.525804  7.487266  4.158411